Route #1: 38 47 48 26 56
Route #2: 52 83 81
Route #3: 87 37 6 49 39
Route #4: 28 42 78 65 25
Route #5: 68 54 86
Route #6: 60 67 88
Route #7: 92 9 55
Route #8: 35 20 41 15
Route #9: 93 75
Route #10: 91 51 97
Route #11: 13 74 69 90
Route #12: 33 53 73 95 32
Route #13: 4 18
Route #14: 44 40 3 96 64 34
Route #15: 57 72 36 29 43 45 2 7
Route #16: 1 70 22
Route #17: 10 63 14
Route #18: 80 17
Route #19: 46 31 24
Route #20: 76 16 84 66
Route #21: 59 82 77
Route #22: 21 27 61
Route #23: 89 98 99 62 71
Route #24: 58 12 5
Route #25: 50 19 23
Route #26: 30 85 11 79
Route #27: 8 94 100
Cost: 28059
